32	0

0	2	2	3
10	1	5
1	1	4
4	1	5
1	2	6	7
8	1	8
7	1	8
3	1	9
3	1	10
6	2	11	13
2	2	12	14
10	1	15
6	1	14
5	1	15
3	2	16	17
4	2	18	19
3	2	18	19
6	2	20	21
8	1	20
5	2	22	23
10	1	22
6	2	24	26
8	2	24	26
3	1	25
3	1	27
10	2	28	29
5	2	28	29
9	2	30	31
6	2	30	31
9	1	32
10	1	32
0	0
